50

100 23 217
99 9 192
97 39 189
97 1 228
97 38 420
93 34 288
93 35 394
92 30 210
92 45 378
88 25 258
83 6 371
83 35 479
79 12 421
76 19 308
76 31 491
75 1 458
72 8 456
71 2 492
70 8 225
69 1 384
67 10 333
66 31 239
63 3 469
62 29 491
62 7 296
61 25 220
61 16 488
51 9 326
50 6 471
44 7 415
44 10 215
43 8 305
43 22 441
40 2 495
39 16 325
37 6 430
37 1 422
30 9 247
23 10 278
20 2 233
19 3 267
18 5 409
17 5 379
15 7 461
14 3 344
13 1 354
13 4 248
12 6 239
8 3 448
8 3 295
